1082
0 58 119 181 190 
58 190 287 392 493 
0 147 311 433 484 
0 234 392 423 472 
0 77 255 322 545 
58 92 231 339 395 
304 616 691 753 770 
102 200 417 691 746 
117 247 383 489 659 
164 248 469 484 579 
287 726 819 887 916 
423 496 650 819 887 
92 577 743 826 842 
806 916 972 1008 1034 
124 770 806 842 893 
